&inputpp
   outdir = './'
   prefix = 'mos2'
   seedname = 'mos2'
   spin_component = 'none'
   write_mmn = .true.
   write_amn = .true.
 !  write_unk = .true.
 !  write_hr = .true.
/


