&control
    title= 'mos2'
    calculation='nscf'
    prefix='mos2'
    pseudo_dir='./'
    tstress=.true.
    tprnfor=.true.
    etot_conv_thr=1.D-5,
    forc_conv_thr=1.D-4,
    verbosity='high'
!    wf_collect=.true.
!    nstep=300
 /
 &system
    nosym = true
    ibrav=0
    nat= 96
    ntyp=2
    ecutwfc = 50.0,
    smearing = "gaussian"
    occupations = "smearing",
    degauss=0.005
    vdw_corr = 'DFT-D'
    nbnd = 544
 /
 &electrons
    diagonalization='david'
    conv_thr =  1.0d-8
 /
&IONS
  upscale           = 100.D0,
/
&CELL
  cell_dynamics     = 'bfgs'
  press_conv_thr    = 0.5d0
/
ATOMIC_SPECIES
Mo   95.95     mo.upf
 S  32.065    s.upf
K_POINTS crystal
   16
  0.0000000000  0.0000000000  0.0000000000   0.0625000000
  0.0000000000  0.2500000000  0.0000000000   0.0625000000
  0.0000000000  0.5000000000  0.0000000000   0.0625000000
  0.0000000000  0.7500000000  0.0000000000   0.0625000000
  0.2500000000  0.0000000000  0.0000000000   0.0625000000
  0.2500000000  0.2500000000  0.0000000000   0.0625000000
  0.2500000000  0.5000000000  0.0000000000   0.0625000000
  0.2500000000  0.7500000000  0.0000000000   0.0625000000
  0.5000000000  0.0000000000  0.0000000000   0.0625000000
  0.5000000000  0.2500000000  0.0000000000   0.0625000000
  0.5000000000  0.5000000000  0.0000000000   0.0625000000
  0.5000000000  0.7500000000  0.0000000000   0.0625000000
  0.7500000000  0.0000000000  0.0000000000   0.0625000000
  0.7500000000  0.2500000000  0.0000000000   0.0625000000
  0.7500000000  0.5000000000  0.0000000000   0.0625000000
  0.7500000000  0.7500000000  0.0000000000   0.0625000000
CELL_PARAMETERS (angstrom)
  12.6167640882  0.0000000000   0.0000000000
  -6.3083820441  10.9264382139   0.0000000000
  0.0000000000  0.0000000000   39.0339281047
ATOMIC_POSITIONS (crystal)
Mo  0.0420038977  0.0790918436   0.0798330986
Mo  0.2872911203  0.0838046209   0.0799854277
Mo  0.5363485649  0.0786205659   0.0790714535
Mo  0.8066135074  0.0819195100   0.0786906310
Mo  0.0497799803  0.3260285383   0.0796046051
Mo  0.3059065909  0.3217870387   0.0761010377
Mo  0.5554353131  0.3295631213   0.0776243279
Mo  0.7981305081  0.3262641772   0.0796046051
Mo  0.0434177309  0.5868679262   0.0780051504
Mo  0.2861129260  0.5762641772   0.0764818602
Mo  0.5464810362  0.5757928994   0.0789952890
Mo  0.8011938134  0.5944083700   0.0803662502
Mo  0.0405900637  0.8227295942   0.0800615922
Mo  0.3009581738  0.8368679262   0.0757202151
Mo  0.5521363681  0.8283849270   0.0822703630
Mo  0.8063778685  0.8420519813   0.0823465275
Mo  0.1392879157  0.0283268566   0.2564820552
Mo  0.4020470156  0.0493277107   0.2503127299
Mo  0.6473688386  0.0495923436   0.2526738297
Mo  0.9032944115  0.0663516982   0.2516075266
Mo  0.1199365336  0.2747978798   0.2530546523
Mo  0.3869371332  0.2750625136   0.2501604009
Mo  0.6263679853  0.2962990057   0.2556442456
Mo  0.8966675291  0.3201275262   0.2503888944
Mo  0.1029415403  0.5104295159   0.2525976652
Mo  0.3565107244  0.5156425650   0.2566343843
Mo  0.6258677127  0.5460689739   0.2521406782
Mo  0.8716608142  0.5583511891   0.2520645137
Mo  0.0875960198  0.7561936225   0.2522930072
Mo  0.3536540632  0.7559869777   0.2556442456
Mo  0.6161775242  0.7821718869   0.2525976652
Mo  0.8513668767  0.7864423814   0.2550349295
S   0.1368835232  -0.0028276664   0.1226438993
S   0.1312281904  0.0061266106   0.0400688783
S   0.3831133012  -0.0084829992   0.1222630768
S   0.3840558567  -0.0108393879   0.0371746270
S   0.6234521076  -0.0007069166   0.1160175870
S   0.6227451910  0.0065978883   0.0399927138
S   0.8718026356  0.0073048049   0.1184548513
S   0.8795787182  -0.0065978883   0.0405258654
S   0.1397111896  0.2591899158   0.1226438993
S   0.1248659410  0.2610750268   0.0371746270
S   0.3831133012  0.2483505279   0.1170077256
S   0.3734521076  0.2540058607   0.0406781944
S   0.6361766065  0.2613106656   0.1186833448
S   0.6335845789  0.2457585004   0.0394595623
S   0.8793430793  0.2516494721   0.1200543060
S   0.8809925514  0.2485861668   0.0387740817
S   0.1354696900  0.5028276664   0.1167792321
S   0.1208600802  0.4908100842   0.0390025752
S   0.3772223295  0.4891606121   0.1227200638
S   0.3913606616  0.4882180566   0.0402973719
S   0.6371191620  0.4955228615   0.1154844354
S   0.6180324137  0.5014138332   0.0410590170
S   0.8748659409  0.5117819434   0.1203589640
S   0.8847627733  0.5037702219   0.0407543589
S   0.1220382745  0.7573048048   0.1169315611
S   0.1281648851  0.7386893343   0.0407543589
S   0.3868835231  0.7565978882   0.1224154058
S   0.3828776623  0.7596611935   0.0361083238
S   0.6342914955  0.7610750267   0.1210444446
S   0.6328776623  0.7610750267   0.0389264107
S   0.8727451910  0.7565978882   0.1208159511
S   0.8727451910  0.7490574444   0.0378601076
S   0.0462722020  0.1041119604   0.2965509336
S   0.0533413680  0.0972784332   0.2143567351
S   0.3012552193  0.1086180938   0.2924380500
S   0.2977206363  0.1189862040   0.2130619385
S   0.5616579305  0.1213715875   0.2959416175
S   0.5593015419  0.1366881139   0.2131381030
S   0.8086292264  0.1364814691   0.2923618855
S   0.8178191422  0.1517979955   0.2176318091
S   0.0412947909  0.3451632905   0.2928950371
S   0.0342256248  0.3420999852   0.2168701640
S   0.2889730032  0.3461348400   0.2919048985
S   0.2868522534  0.3579167834   0.2133665965
S   0.5493757146  0.3760899711   0.2953323014
S   0.5503182700  0.3753830545   0.2112339902
S   0.8086002315  0.3968551855   0.2898484567
S   0.8048300096  0.3853088810   0.2142805706
S   0.0049774112  0.5782028983   0.2954084659
S   0.0056843278  0.5921055914   0.2121479643
S   0.2625524560  0.5982611969   0.2895437987
S   0.2729205662  0.5902494754   0.2145852287
S   0.5191849446  0.6112503287   0.2925142146
S   0.5264897495  0.6227966332   0.2152707092
S   0.7937259880  0.6232969058   0.2928950371
S   0.7798232948  0.6176415730   0.2163370124
S   -0.0098968324  0.8258521157   0.2958654530
S   -0.0089542770  0.8178403942   0.2176318091
S   0.2530979064  0.8265880272   0.2922095565
S   0.2474425736  0.8289444159   0.2173271510
S   0.5111442291  0.8621984903   0.2935805177
S   0.5031325076  0.8511234635   0.2132142675
S   0.7743746068  0.8603423743   0.2963986046
S   0.7755528011  0.8697679290   0.2166416704
