&control
    title= 'mos2'
    calculation='relax'
    prefix='mos2'
    pseudo_dir='./'
    tstress=.true.
    tprnfor=.true.
    etot_conv_thr=1.D-6,
    forc_conv_thr=1.D-5,
    verbosity='high'
!    wf_collect=.true.
    nstep=300
 /
 &system
    nosym = true
    ibrav=0
    nat= 96
    ntyp=2
    ecutwfc = 50.0,
    smearing = "gaussian"
    occupations = "smearing",
    degauss=0.005
    vdw_corr = 'DFT-D'
    nbnd = 544
 /
 &electrons
    diagonalization='david'
    conv_thr =  1.0d-8
 /
&IONS
  upscale           = 100.D0,
/
&CELL
  cell_dynamics     = 'bfgs'
  press_conv_thr    = 0.5d0
/
ATOMIC_SPECIES
Mo   95.95     mo.upf
 S  32.065    s.upf
K_POINTS (automatic)
2 2 1 0 0 0
CELL_PARAMETERS (angstrom)
 13.74012   0.0000000000   0.0000000000
 -6.87006   11.899292971   -0.0000000000
 0.0000000000   -0.0000000000   39.3884239200
ATOMIC_POSITIONS (crystal)
Mo   0.0833331475   0.1666664259   0.0788887192  0  0  0
Mo   0.0833332939   0.4166668486   0.0788886502  1  1  1
Mo   0.0833333686   0.6666667035   0.0788886744  1  1  1
Mo   0.0833333598   0.9166665714   0.0788886941  0  0  0
Mo   0.3333333877   0.1666666218   0.0788887073  1  1  1
Mo   0.3333334738   0.4166666555   0.0788886600  1  1  1
Mo   0.3333332258   0.6666667452   0.0788886722  1  1  1
Mo   0.3333332990   0.9166666555   0.0788887085  1  1  1
Mo   0.5833333522   0.1666665352   0.0788887106  1  1  1
Mo   0.5833334427   0.4166668541   0.0788887070  1  1  1
Mo   0.5833335878   0.6666667133   0.0788887047  1  1  1
Mo   0.5833334575   0.9166668219   0.0788887134  1  1  1
Mo   0.8333331232   0.1666665033   0.0788886977  0  0  0
Mo   0.8333333796   0.4166667604   0.0788886925  1  1  1
Mo   0.8333332117   0.6666665738   0.0788886888  1  1  1
Mo   0.8333332726   0.9166666728   0.0788887058  0  0  0
Mo   0.1166667881   0.1083332762   0.2436072710  0  0  0
Mo   0.1166666805   0.3583333543   0.2436073098  1  1  1
Mo   0.1166666647   0.6083334454   0.2436073040  1  1  1
Mo   0.1166666206   0.8583332992   0.2436072788  0  0  0
Mo   0.3666668442   0.1083334843   0.2436072841  1  1  1
Mo   0.3666667636   0.3583332435   0.2436073065  1  1  1
Mo   0.3666667123   0.6083334209   0.2436073125  1  1  1
Mo   0.3666668159   0.8583334208   0.2436072860  1  1  1
Mo   0.6166666579   0.1083333651   0.2436072523  1  1  1
Mo   0.6166666563   0.3583332311   0.2436072674  1  1  1
Mo   0.6166668003   0.6083333497   0.2436072922  1  1  1
Mo   0.6166667436   0.8583334983   0.2436072873  1  1  1
Mo   0.8666663520   0.1083331945   0.2436072713  0  0  0
Mo   0.8666663775   0.3583331773   0.2436072507  1  1  1
Mo   0.8666665671   0.6083333231   0.2436072849  1  1  1
Mo   0.8666665372   0.8583332313   0.2436072980  0  0  0
S    0.1666666918   0.0833331920   0.0392737232  1  1  1
S    0.1666666536   0.3333333931   0.0392737048  1  1  1
S    0.1666665724   0.5833334139   0.0392736867  1  1  1
S    0.1666666337   0.8333332595   0.0392737273  1  1  1
S    0.4166666998   0.0833332981   0.0392737269  1  1  1
S    0.4166668592   0.3333333882   0.0392737407  1  1  1
S    0.4166667386   0.5833333588   0.0392737047  1  1  1
S    0.4166666964   0.8333334418   0.0392737244  1  1  1
S    0.6666667144   0.0833333401   0.0392737244  1  1  1
S    0.6666667334   0.3333334115   0.0392737571  1  1  1
S    0.6666667676   0.5833333105   0.0392737292  1  1  1
S    0.6666668079   0.8333334525   0.0392737433  1  1  1
S    0.9166663964   0.0833331891   0.0392737460  1  1  1
S    0.9166665242   0.3333333059   0.0392737373  1  1  1
S    0.9166666515   0.5833333569   0.0392737402  1  1  1
S    0.9166665779   0.8333332226   0.0392737472  1  1  1
S    0.1666666856   0.0833331742   0.1184770136  1  1  1
S    0.1666666242   0.3333333417   0.1184769610  1  1  1
S    0.1666665773   0.5833334336   0.1184769697  1  1  1
S    0.1666666535   0.8333333041   0.1184769789  1  1  1
S    0.4166666972   0.0833332994   0.1184770031  1  1  1
S    0.4166668501   0.3333333550   0.1184769718  1  1  1
S    0.4166667992   0.5833334145   0.1184769668  1  1  1
S    0.4166667289   0.8333334680   0.1184769980  1  1  1
S    0.6666667367   0.0833333213   0.1184770120  1  1  1
S    0.6666667320   0.3333334349   0.1184769706  1  1  1
S    0.6666667873   0.5833333059   0.1184769995  1  1  1
S    0.6666668045   0.8333334776   0.1184770011  1  1  1
S    0.9166663464   0.0833331648   0.1184769979  1  1  1
S    0.9166664933   0.3333332594   0.1184769481  1  1  1
S    0.9166666107   0.5833333432   0.1184769591  1  1  1
S    0.9166665802   0.8333332517   0.1184769622  1  1  1
S    0.0333332517   0.1916665630   0.2040158582  1  1  1
S    0.0333332446   0.4416666807   0.2040158506  1  1  1
S    0.0333332831   0.6916666975   0.2040158496  1  1  1
S    0.0333333224   0.9416666051   0.2040158378  1  1  1
S    0.2833334282   0.1916666432   0.2040158367  1  1  1
S    0.2833334198   0.4416666644   0.2040158874  1  1  1
S    0.2833333803   0.6916667711   0.2040158618  1  1  1
S    0.2833333781   0.9416667339   0.2040158448  1  1  1
S    0.5333334198   0.1916666553   0.2040158231  1  1  1
S    0.5333334237   0.4416666428   0.2040158445  1  1  1
S    0.5333334605   0.6916667878   0.2040158638  1  1  1
S    0.5333335002   0.9416668262   0.2040158337  1  1  1
S    0.7833330674   0.1916664830   0.2040157915  1  1  1
S    0.7833331922   0.4416666413   0.2040158032  1  1  1
S    0.7833333071   0.6916666205   0.2040158265  1  1  1
S    0.7833331992   0.9416666485   0.2040158365  1  1  1
S    0.0333332786   0.1916665674   0.2832191071  1  1  1
S    0.0333333103   0.4416667167   0.2832191243  1  1  1
S    0.0333332964   0.6916667124   0.2832191185  1  1  1
S    0.0333333027   0.9416666003   0.2832191201  1  1  1
S    0.2833334402   0.1916666687   0.2832191342  1  1  1
S    0.2833334183   0.4416666737   0.2832191342  1  1  1
S    0.2833333808   0.6916667451   0.2832191433  1  1  1
S    0.2833334004   0.9416667261   0.2832191149  1  1  1
S    0.5333333782   0.1916666457   0.2832191113  1  1  1
S    0.5333334062   0.4416666282   0.2832191240  1  1  1
S    0.5333334462   0.6916667763   0.2832191181  1  1  1
S    0.5333334546   0.9416668003   0.2832191054  1  1  1
S    0.7833330779   0.1916664870   0.2832191035  1  1  1
S    0.7833332032   0.4416666455   0.2832191200  1  1  1
S    0.7833333212   0.6916666522   0.2832191469  1  1  1
S    0.7833332107   0.9416666242   0.2832191305  1  1  1
